RT is False
Default write of storage_offers_DA.csv just to have a file (but constraint should be inactive)
Reading model...
...model read.
creating competitive generators file...
...competitive generators recorded.
Loading data...
.. day-ahead data with real-time VRE data read.
Compiling instance...
...instance created.
Creating Offer Mitigation (model will solve as dispatch if TRUE)...
Solving...

Welcome to IBM(R) ILOG(R) CPLEX(R) Interactive Optimizer 12.8.0.0
  with Simplex, Mixed Integer & Barrier Optimizers
5725-A06 5725-A29 5724-Y48 5724-Y49 5724-Y54 5724-Y55 5655-Y21
Copyright IBM Corp. 1988, 2017.  All Rights Reserved.

Type 'help' for a list of available commands.
Type 'help' followed by a command name for more
information on commands.

CPLEX> Logfile 'cplex.log' closed.
Logfile 'C:\Users\llavi\Desktop\test919\logs\tmpkv_sfytu.cplex.log' open.
CPLEX> New value for parallel optimization mode: -1
CPLEX> New value for mixed integer optimality gap tolerance: 0.01
CPLEX> New value for integrality tolerance: 1e-09
CPLEX> New value for feasibility tolerance: 0.01
CPLEX> New value for deterministic time limit in ticks: 75000
CPLEX> Problem 'C:\Users\llavi\Desktop\test919\logs\tmp49a93ovx.pyomo.lp' read.
Read time = 0.08 sec. (3.03 ticks)
CPLEX> Problem name         : C:\Users\llavi\Desktop\test919\logs\tmp49a93ovx.pyomo.lp
Objective sense      : Minimize
Variables            :   26465  [Nneg: 1,  Box: 22000,  Free: 4464]
Objective nonzeros   :    2496
Linear constraints   :   27515  [Less: 14006,  Greater: 4416,  Equal: 9093]
  Nonzeros           :   89171
  RHS nonzeros       :   12264

Variables            : Min LB: -5000.000        Max UB: 1000000.       
Objective nonzeros   : Min   : 15.73158         Max   : 124.0997       
Linear constraints   :
  Nonzeros           : Min   : 0.8500000        Max   : 3000.000       
  RHS nonzeros       : Min   : 0.008333333      Max   : 5000.000       
CPLEX> CPXPARAM_Simplex_Tolerances_Feasibility          0.01
CPXPARAM_Parallel                                -1
CPXPARAM_DetTimeLimit                            75000
CPXPARAM_MIP_Tolerances_MIPGap                   0.01
CPXPARAM_MIP_Tolerances_Integrality              1.0000000000000001e-09
Parallel mode: opportunistic, using up to 4 threads for concurrent optimization.
Tried aggregator 1 time.
LP Presolve eliminated 21401 rows and 15895 columns.
Aggregator did 728 substitutions.
Reduced LP has 5386 rows, 9842 columns, and 31752 nonzeros.
Presolve time = 0.05 sec. (22.47 ticks)

Iteration log . . .
Iteration:     1   Dual objective     =             0.000000
Perturbation started.
Iteration:   101   Dual objective     =             0.000000
Iteration:   366   Dual objective     =             1.381007
Iteration:   658   Dual objective     =             2.046969
Iteration:   963   Dual objective     =             2.197257
Iteration:  1164   Dual objective     =             2.314893
Iteration:  1513   Dual objective     =             2.372684
Iteration:  1812   Dual objective     =             2.401137
Iteration:  2108   Dual objective     =             2.425616
Iteration:  2407   Dual objective     =             2.435994
Iteration:  2719   Dual objective     =             2.448393
Iteration:  3057   Dual objective     =             2.456522
Iteration:  3453   Dual objective     =          6639.786020
Iteration:  3825   Dual objective     =         16254.772601
Iteration:  4231   Dual objective     =         23096.670138
Removing perturbation.

Dual simplex solved model.


Dual simplex - Optimal:  Objective =  2.3564259746e+04
Solution time =    0.17 sec.  Iterations = 4400 (0)
Deterministic time = 94.96 ticks  (552.12 ticks/sec)

CPLEX> Solution written to file 'C:\Users\llavi\Desktop\test919\logs\tmpttx0k2ks.cplex.sol'.
CPLEX> Exporting results... 
...storage offer mitigation file created
Converting model to MPEC...
...converted
NOTE: initial MIP solve with only storage competitive to get feasible solution
Solving...

Welcome to IBM(R) ILOG(R) CPLEX(R) Interactive Optimizer 12.8.0.0
  with Simplex, Mixed Integer & Barrier Optimizers
5725-A06 5725-A29 5724-Y48 5724-Y49 5724-Y54 5724-Y55 5655-Y21
Copyright IBM Corp. 1988, 2017.  All Rights Reserved.

Type 'help' for a list of available commands.
Type 'help' followed by a command name for more
information on commands.

CPLEX> Logfile 'cplex.log' closed.
Logfile 'C:\Users\llavi\Desktop\test919\logs\tmpg2baskq0.cplex.log' open.
CPLEX> New value for parallel optimization mode: -1
CPLEX> New value for mixed integer optimality gap tolerance: 0.01
CPLEX> New value for integrality tolerance: 1e-09
CPLEX> New value for feasibility tolerance: 0.01
CPLEX> New value for deterministic time limit in ticks: 75000
CPLEX> Problem 'C:\Users\llavi\Desktop\test919\logs\tmp8z0ogv3i.pyomo.lp' read.
Read time = 0.30 sec. (13.96 ticks)
CPLEX> Problem name         : C:\Users\llavi\Desktop\test919\logs\tmp8z0ogv3i.pyomo.lp
Objective sense      : Maximize
Variables            :   53805  [Nneg: 1,  Box: 22000,  Free: 4464,
                                 Binary: 27340]
Objective nonzeros   :    9071
Linear constraints   :  123205  [Less: 41346,  Greater: 59096,  Equal: 22763]
  Nonzeros           :  291698
  RHS nonzeros       :   67408

Variables            : Min LB: -5000.000        Max UB: 1000000.       
Objective nonzeros   : Min   : 0.008333333      Max   : 2500.000       
Linear constraints   :
  Nonzeros           : Min   : 0.008333333      Max   : 1000000.       
  RHS nonzeros       : Min   : 0.008333333      Max   : 1000000.       
CPLEX> CPXPARAM_Simplex_Tolerances_Feasibility          0.01
CPXPARAM_Parallel                                -1
CPXPARAM_DetTimeLimit                            75000
CPXPARAM_MIP_Tolerances_MIPGap                   0.01
CPXPARAM_MIP_Tolerances_Integrality              1.0000000000000001e-09
Tried aggregator 3 times.
MIP Presolve eliminated 88734 rows and 19079 columns.
MIP Presolve added 3344 rows and 0 columns.
MIP Presolve modified 23821 coefficients.
Aggregator did 12965 substitutions.
Reduced MIP has 24850 rows, 21202 columns, and 70851 nonzeros.
Reduced MIP has 8393 binaries, 0 generals, 0 SOSs, and 0 indicators.
Presolve time = 0.25 sec. (165.37 ticks)
Probing fixed 405 vars, tightened 2905 bounds.
Probing time = 3.17 sec. (903.48 ticks)
Tried aggregator 2 times.
MIP Presolve eliminated 914 rows and 812 columns.
MIP Presolve modified 2228 coefficients.
Aggregator did 40 substitutions.
Reduced MIP has 23896 rows, 20350 columns, and 68081 nonzeros.
Reduced MIP has 7988 binaries, 0 generals, 0 SOSs, and 0 indicators.
Presolve time = 0.11 sec. (55.57 ticks)
Probing time = 0.05 sec. (15.45 ticks)
Clique table members: 6419.
MIP emphasis: balance optimality and feasibility.
MIP search method: dynamic search.
Parallel mode: opportunistic, using up to 4 threads.
Root relaxation solution time = 0.45 sec. (402.89 ticks)

        Nodes                                         Cuts/
   Node  Left     Objective  IInf  Best Integer    Best Bound    ItCnt     Gap

      0     0        0.0000   661                      0.0000     2717         
*     0+    0                            0.0000        0.0000             0.00%
      0     0        cutoff              0.0000        0.0000     2717    0.00%
Elapsed time = 5.20 sec. (1910.29 ticks, tree = 0.01 MB, solutions = 1)

Root node processing (before b&c):
  Real time             =    5.22 sec. (1912.55 ticks)
Parallel b&c, 4 threads:
  Real time             =    0.00 sec. (0.00 ticks)
  Sync time (average)   =    0.00 sec.
  Wait time (average)   =    0.00 sec.
                          ------------
Total (root+branch&cut) =    5.22 sec. (1912.55 ticks)

Solution pool: 1 solution saved.

MIP - Integer optimal solution:  Objective =  9.5496943686e-10
Solution time =    5.22 sec.  Iterations = 2717  Nodes = 0
Deterministic time = 1912.71 ticks  (366.49 ticks/sec)

CPLEX> Incumbent solution written to file 'C:\Users\llavi\Desktop\test919\logs\tmppqvb07u3.cplex.sol'.
CPLEX> NOTE: no warmstart specified for MIP iteration, default behavior is true
NOTE: resolving with all competitive generators using storage-only solution to warmstart
Solving...

Welcome to IBM(R) ILOG(R) CPLEX(R) Interactive Optimizer 12.8.0.0
  with Simplex, Mixed Integer & Barrier Optimizers
5725-A06 5725-A29 5724-Y48 5724-Y49 5724-Y54 5724-Y55 5655-Y21
Copyright IBM Corp. 1988, 2017.  All Rights Reserved.

Type 'help' for a list of available commands.
Type 'help' followed by a command name for more
information on commands.

CPLEX> Logfile 'cplex.log' closed.
Logfile 'C:\Users\llavi\Desktop\test919\logs\tmplnllh1lj.cplex.log' open.
CPLEX> New value for parallel optimization mode: -1
CPLEX> New value for mixed integer optimality gap tolerance: 0.01
CPLEX> New value for integrality tolerance: 1e-09
CPLEX> New value for feasibility tolerance: 0.01
CPLEX> New value for deterministic time limit in ticks: 75000
CPLEX> Problem 'C:\Users\llavi\Desktop\test919\logs\tmp334k3stx.pyomo.lp' read.
Read time = 0.25 sec. (13.98 ticks)
CPLEX> MIP start file 'C:\Users\llavi\Desktop\test919\logs\tmpqty44t6z.cplex.mst' read.
CPLEX> Problem name         : C:\Users\llavi\Desktop\test919\logs\tmp334k3stx.pyomo.lp
Objective sense      : Maximize
Variables            :   54525  [Nneg: 1,  Box: 22720,  Free: 4464,
                                 Binary: 27340]
Objective nonzeros   :    9767
Linear constraints   :  123205  [Less: 41346,  Greater: 59096,  Equal: 22763]
  Nonzeros           :  291698
  RHS nonzeros       :   67408

Variables            : Min LB: -5000.000        Max UB: 1000000.       
Objective nonzeros   : Min   : 0.008333333      Max   : 2500.000       
Linear constraints   :
  Nonzeros           : Min   : 0.008333333      Max   : 1000000.       
  RHS nonzeros       : Min   : 0.008333333      Max   : 1000000.       
CPLEX> CPXPARAM_Simplex_Tolerances_Feasibility          0.01
CPXPARAM_Parallel                                -1
CPXPARAM_DetTimeLimit                            75000
CPXPARAM_MIP_Tolerances_MIPGap                   0.01
CPXPARAM_MIP_Tolerances_Integrality              1.0000000000000001e-09
Warning:  No solution found from 1 MIP starts.
Retaining values of one MIP start for possible repair.
Tried aggregator 3 times.
MIP Presolve eliminated 88734 rows and 19799 columns.
MIP Presolve added 3344 rows and 0 columns.
MIP Presolve modified 23821 coefficients.
Aggregator did 12965 substitutions.
Reduced MIP has 24850 rows, 21202 columns, and 70851 nonzeros.
Reduced MIP has 8393 binaries, 0 generals, 0 SOSs, and 0 indicators.
Presolve time = 0.23 sec. (165.73 ticks)
Probing fixed 405 vars, tightened 2905 bounds.
Probing time = 3.13 sec. (903.48 ticks)
Tried aggregator 2 times.
MIP Presolve eliminated 914 rows and 812 columns.
MIP Presolve modified 2228 coefficients.
Aggregator did 40 substitutions.
Reduced MIP has 23896 rows, 20350 columns, and 68081 nonzeros.
Reduced MIP has 7988 binaries, 0 generals, 0 SOSs, and 0 indicators.
Presolve time = 0.14 sec. (55.58 ticks)
Probing time = 0.06 sec. (15.45 ticks)
Clique table members: 6419.
MIP emphasis: balance optimality and feasibility.
MIP search method: dynamic search.
Parallel mode: opportunistic, using up to 4 threads.
Root relaxation solution time = 0.50 sec. (477.48 ticks)

        Nodes                                         Cuts/
   Node  Left     Objective  IInf  Best Integer    Best Bound    ItCnt     Gap

      0     0   121780.2846   751                 121780.2846     2780         
      0     0   117804.3191   107                   Cuts: 175     2914         
      0     0   116423.0229   109                    Cuts: 99     2968         
      0     0   116370.8577   111                    Cuts: 44     2988         
      0     0   116370.8577   111                    Cuts: 27     2997         
      0     0   116370.8577   126                    Cuts: 21     3015         
Repair heuristic found nothing.
      0     2   116370.8577   126                 116370.8577     3015         
Elapsed time = 26.28 sec. (9363.99 ticks, tree = 0.03 MB, solutions = 0)
     88    41    88651.1530    71                 114687.0588     4280         
    172   134    68438.5717    55                 114687.0588     5287         
    276   180    infeasible                       114687.0588     7359         
    376   206    29211.0256    30                 114687.0588    10382         
    441   222    infeasible                       114687.0588    11716         
*   514+  276                       -26969.4263   114687.0588           525.25%
*   542   260      integral     0   -23200.8870   114687.0588    13038  594.32%
    603   288    18991.4547    71   -23200.8870   112844.7853    14307  586.38%
    682   361    -3355.3666    11   -23200.8870   112166.6145    15806  583.46%
    976   500     4232.0443    16   -23200.8870   112166.6145    17035  583.46%
Elapsed time = 31.66 sec. (12294.71 ticks, tree = 7.75 MB, solutions = 2)
   1043   517        cutoff         -23200.8870   112166.6145    17185  583.46%
   1096   533     2862.8147    10   -23200.8870   112166.6145    17274  583.46%
   1144   551    33818.8752    44   -23200.8870   112166.6145    17742  583.46%
   1213   555     -416.6520     5   -23200.8870   112166.6145    17826  583.46%
   1265   593        cutoff         -23200.8870   112166.6145    18194  583.46%
   1303   595   -15446.1635     3   -23200.8870   112166.6145    18210  583.46%
   1329   593        cutoff         -23200.8870   112166.6145    18217  583.46%
   1357   595   -15446.1635     3   -23200.8870   112166.6145    18239  583.46%
   1385   595   -15446.1635     3   -23200.8870   112166.6145    18249  583.46%
   1440   622     2351.1906    15   -23200.8870   112166.6145    18672  583.46%
Elapsed time = 44.44 sec. (22257.86 ticks, tree = 8.86 MB, solutions = 2)
   1524   674     -151.5421     5   -23200.8870   112166.6145    19204  583.46%
   1604   724    -5805.6275     4   -23200.8870   112166.6145    19719  583.46%
   1639   665   -17813.5731     2   -23200.8870   112166.6145    19215  583.46%
   1670   735    -8173.0371     3   -23200.8870   112166.6145    19823  583.46%
   1696   728     2996.3078     2   -23200.8870   112166.6145    19783  583.46%
   1718   735    -8173.0371     3   -23200.8870   112166.6145    19847  583.46%
   1742   735        cutoff         -23200.8870   112166.6145    19848  583.46%
   1764   736     -416.6520     5   -23200.8870   112166.6145    19867  583.46%
   1783   734        cutoff         -23200.8870   112166.6145    19887  583.46%
   1799   733        cutoff         -23200.8870   112166.6145    19887  583.46%
Elapsed time = 57.61 sec. (32153.68 ticks, tree = 10.63 MB, solutions = 2)
   1815   735        cutoff         -23200.8870   112166.6145    19908  583.46%
   1897   778    -2826.0785     3   -23200.8870   112166.6145    20885  583.46%
   1974   827     1513.2132    20   -23200.8870   112166.6145    21602  583.46%
   2063   888    51882.0738    64   -23200.8870   112166.6145    22466  583.46%
   2128   932     7984.8548     7   -23200.8870   112166.6145    22891  583.46%
   2159   736        cutoff         -23200.8870   112166.6145    19927  583.46%
   2195   954    10850.7812    52   -23200.8870   112166.6145    23452  583.46%
   2330  1016    13431.8482    11   -23200.8870   112166.6145    24061  583.46%
   2364   834        cutoff         -23200.8870   112166.6145    21645  583.46%
   2433   878     6378.1750    16   -23200.8870   111465.7786    22618  580.44%
Elapsed time = 72.58 sec. (41877.02 ticks, tree = 12.57 MB, solutions = 2)
   2540  1053    26128.1306    48   -23200.8870   111465.7786    24882  580.44%
   2661  1096   -19692.4419    25   -23200.8870   111465.7786    25399  580.44%
   2755  1125     3379.4223    51   -23200.8870   111465.7786    26492  580.44%
   2865  1209     9027.3780    52   -23200.8870   111465.7786    27243  580.44%
   2926  1331   -16640.1228     4   -23200.8870   111465.7786    28612  580.44%
   2955  1332   -16640.1228     4   -23200.8870   111465.7786    28622  580.44%
   2983  1336   -16640.1228     4   -23200.8870   111465.7786    28632  580.44%
   2999  1308   -17813.5731     2   -23200.8870   111465.7786    28518  580.44%
   3021  1348   -16640.1228     4   -23200.8870   111465.7786    28719  580.44%
   3043  1348   -16640.1228     4   -23200.8870   111465.7786    28723  580.44%
Elapsed time = 83.91 sec. (51721.85 ticks, tree = 14.67 MB, solutions = 2)
   3074  1367    32646.7068    53   -23200.8870   111465.7786    29140  580.44%
   3177  1452    -9802.1279    57   -23200.8870   111465.7786    30073  580.44%
   3294  1540    -6035.0024    24   -23200.8870   111465.7786    31007  580.44%
   3397  1610        cutoff         -23200.8870   111465.7786    31466  580.44%
   3426  1613    -9129.6271     3   -23200.8870   111465.7786    31480  580.44%
   3480  1392    18883.2223    46   -23200.8870   111465.7786    29582  580.44%
   3538  1358     2996.3078     2   -23200.8870   111465.7786    28766  580.44%
   3544  1358     2996.3078     2   -23200.8870   111465.7786    28767  580.44%
   3551  1358     2996.3078     2   -23200.8870   111465.7786    28771  580.44%
   3557  1358     2996.3078     2   -23200.8870   111465.7786    28775  580.44%
Elapsed time = 93.61 sec. (63245.37 ticks, tree = 21.62 MB, solutions = 2)
   3558  1686    30956.0475    88   -23200.8870    30244.5550    40227  230.36%
   3757   128     3060.5992    38   -23200.8870    25962.1253    42538  211.90%
   3954   268    -8930.1567    64   -23200.8870    25962.1253    44953  211.90%
   4131   349    -8656.1435    69   -23200.8870    25962.1253    46251  211.90%
   4368   448     9158.4298    70   -23200.8870    25962.1253    48052  211.90%
   4516   488     5353.2611    17   -23200.8870    25962.1253    48569  211.90%

Clique cuts applied:  4
Cover cuts applied:  13
Implied bound cuts applied:  10
Flow cuts applied:  589
Mixed integer rounding cuts applied:  146
Gomory fractional cuts applied:  59

Root node processing (before b&c):
  Real time             =   26.03 sec. (9321.37 ticks)
Parallel b&c, 4 threads:
  Real time             =   96.66 sec. (66241.93 ticks)
  Sync time (average)   =    0.59 sec.
  Wait time (average)   =    0.03 sec.
                          ------------
Total (root+branch&cut) =  122.69 sec. (75563.31 ticks)

Solution pool: 2 solutions saved.

MIP - Deterministic time limit exceeded, integer feasible:  Objective = -2.3200886979e+04
Current MIP best bound =  2.5962125318e+04 (gap = 49163, 211.90%)
Solution time =  122.69 sec.  Iterations = 49465  Nodes = 4545 (674)
Deterministic time = 75563.46 ticks  (615.90 ticks/sec)

CPLEX> Incumbent solution written to file 'C:\Users\llavi\Desktop\test919\logs\tmp39s4o_mp.cplex.sol'.
CPLEX> Exporting results... 
